Optimize a model with 2 rows, 6 columns and 10 nonzeros
Coefficient statistics:
  Matrix range     [1e+00, 8e+00]
  Objective range  [1e+00, 1e+00]
  Bounds range     [0e+00, 0e+00]
  RHS range        [1e+00, 4e+00]
Presolve removed 0 rows and 1 columns
Presolve time: 0.00s
Presolved: 2 rows, 5 columns, 9 nonzeros

Iteration    Objective       Primal Inf.    Dual Inf.      Time
       0    0.0000000e+00   1.250000e-01   0.000000e+00      0s
       1    0.0000000e+00   0.000000e+00   0.000000e+00      0s

Solved in 1 iterations and 0.00 seconds
Optimal objective  0.000000000e+00
A = [(8, 3, -5, 1), (3, 1, -2, -1)]
b = (4, 1)
c = (7, 2, -3, -4)
x[0] = 0.454545
x[1] = 0
x[2] = 0
x[3] = 0.363636
x[4] = 0
x[5] = 0
